Route #1: 26
Route #2: 4
Route #3: 17 51 6
Route #4: 33 63 16 49 24 18 50
Route #5: 58 10 38 11 53
Route #6: 12 40 32 44 3
Route #7: 7 35 8 46 34 52 27
Route #8: 2 30 48 29 45
Route #9: 39 9 25 55 31
Route #10: 23 56 43 41 42 64
Route #11: 59 14 19 54 13 57 15
Route #12: 5 37 20 60 36 47 21
Route #13: 61 22 62 28 1
cost: 916.1928428244465
